(declare-fun a_ack!19 () (_ BitVec 64))
(declare-fun FPCHECK_FMUL_ACCURACY
             ((_ FloatingPoint 11 53) (_ FloatingPoint 11 53))
             Bool)
(assert (not (fp.lt (fp.abs ((_ to_fp 11 53) a_ack!19))
            ((_ to_fp 11 53) #x3e60000000000000))))
(assert (fp.leq (fp.abs ((_ to_fp 11 53) a_ack!19))
        ((_ to_fp 11 53) #x4010000000000000)))
(assert (FPCHECK_FMUL_ACCURACY
  (fp.mul roundNearestTiesToEven
          ((_ to_fp 11 53) #x3fc0000000000000)
          (fp.abs ((_ to_fp 11 53) a_ack!19)))
  (fp.abs ((_ to_fp 11 53) a_ack!19))))

(check-sat)
(exit)
